HUN,8,6,419
1,17,3,3,5,17,0,22,4,24,2,16
1,27,5,2,4,16,3,7,0,26,2,3
4,24,1,9,0,13,5,19,3,12,2,21
1,23,0,13,2,19,3,5,4,21,5,19
1,4,5,10,0,13,4,17,3,10,2,17
0,10,5,12,4,3,1,6,2,5,3,23
2,3,3,8,5,30,4,24,1,28,0,18
1,12,5,28,0,26,3,16,4,12,2,2
